c turning on binary mode checking
c parsing input formula with 202048 variables and 780980 clauses
c finished parsing, read 2935937 bytes from proof file
c detected empty clause; start verification via backward checking
c 7205 of 780980 clauses in core                            
c 2883 of 112370 lemmas in core using 139135 resolution steps
c 0 RAT lemmas in core; 641 redundant literals in core lemmas
s VERIFIED
c verification time: 1.169 seconds
